c *********************************
c * Circuit generated by BenCGen
c *
c * RippleCarryAdder_10_10_10_InOutT
c *
c * Ports with 1 gate(s): 1
c * Ports with 2 gate(s): 51
c * Total gates: 52
c *********************************
p cnf 72 175
1 33 0
-1 -33 0
1 -32 0
33 -32 0
-1 -33 32 0
1 11 -35 0
-1 11 35 0
1 -11 35 0
-1 -11 -35 0
35 32 -21 0
-35 32 21 0
35 -32 21 0
-35 -32 -21 0
32 -36 0
35 -36 0
-32 -35 36 0
11 -37 0
1 -37 0
-11 -1 37 0
-36 34 0
-37 34 0
36 37 -34 0
2 12 -39 0
-2 12 39 0
2 -12 39 0
-2 -12 -39 0
39 34 -22 0
-39 34 22 0
39 -34 22 0
-39 -34 -22 0
34 -40 0
39 -40 0
-34 -39 40 0
12 -41 0
2 -41 0
-12 -2 41 0
-40 38 0
-41 38 0
40 41 -38 0
3 13 -43 0
-3 13 43 0
3 -13 43 0
-3 -13 -43 0
43 38 -23 0
-43 38 23 0
43 -38 23 0
-43 -38 -23 0
38 -44 0
43 -44 0
-38 -43 44 0
13 -45 0
3 -45 0
-13 -3 45 0
-44 42 0
-45 42 0
44 45 -42 0
4 14 -47 0
-4 14 47 0
4 -14 47 0
-4 -14 -47 0
47 42 -24 0
-47 42 24 0
47 -42 24 0
-47 -42 -24 0
42 -48 0
47 -48 0
-42 -47 48 0
14 -49 0
4 -49 0
-14 -4 49 0
-48 46 0
-49 46 0
48 49 -46 0
5 15 -51 0
-5 15 51 0
5 -15 51 0
-5 -15 -51 0
51 46 -25 0
-51 46 25 0
51 -46 25 0
-51 -46 -25 0
46 -52 0
51 -52 0
-46 -51 52 0
15 -53 0
5 -53 0
-15 -5 53 0
-52 50 0
-53 50 0
52 53 -50 0
6 16 -55 0
-6 16 55 0
6 -16 55 0
-6 -16 -55 0
55 50 -26 0
-55 50 26 0
55 -50 26 0
-55 -50 -26 0
50 -56 0
55 -56 0
-50 -55 56 0
16 -57 0
6 -57 0
-16 -6 57 0
-56 54 0
-57 54 0
56 57 -54 0
7 17 -59 0
-7 17 59 0
7 -17 59 0
-7 -17 -59 0
59 54 -27 0
-59 54 27 0
59 -54 27 0
-59 -54 -27 0
54 -60 0
59 -60 0
-54 -59 60 0
17 -61 0
7 -61 0
-17 -7 61 0
-60 58 0
-61 58 0
60 61 -58 0
8 18 -63 0
-8 18 63 0
8 -18 63 0
-8 -18 -63 0
63 58 -28 0
-63 58 28 0
63 -58 28 0
-63 -58 -28 0
58 -64 0
63 -64 0
-58 -63 64 0
18 -65 0
8 -65 0
-18 -8 65 0
-64 62 0
-65 62 0
64 65 -62 0
9 19 -67 0
-9 19 67 0
9 -19 67 0
-9 -19 -67 0
67 62 -29 0
-67 62 29 0
67 -62 29 0
-67 -62 -29 0
62 -68 0
67 -68 0
-62 -67 68 0
19 -69 0
9 -69 0
-19 -9 69 0
-68 66 0
-69 66 0
68 69 -66 0
10 20 -70 0
-10 20 70 0
10 -20 70 0
-10 -20 -70 0
70 66 -30 0
-70 66 30 0
70 -66 30 0
-70 -66 -30 0
66 -71 0
70 -71 0
-66 -70 71 0
20 -72 0
10 -72 0
-20 -10 72 0
-71 31 0
-72 31 0
71 72 -31 0
